// 2.0 x (10 ^ 100) 
20000000000000000000000000000000000000000000000000000000000000000000000000000000000000000000000000000 

// 3.0 x (10 ^ 100) 
30000000000000000000000000000000000000000000000000000000000000000000000000000000000000000000000000000 

// 4.0 x (10 ^ 100) 
40000000000000000000000000000000000000000000000000000000000000000000000000000000000000000000000000000 

// 5.0 x (10 ^ 100) 
50000000000000000000000000000000000000000000000000000000000000000000000000000000000000000000000000000 

// 6.0 x (10 ^ 100) 
60000000000000000000000000000000000000000000000000000000000000000000000000000000000000000000000000000 

// 7.0 x (10 ^ 100) 
70000000000000000000000000000000000000000000000000000000000000000000000000000000000000000000000000000 

// 8.0 x (10 ^ 100) 
80000000000000000000000000000000000000000000000000000000000000000000000000000000000000000000000000000 

// 9.0 x (10 ^ 100) 
90000000000000000000000000000000000000000000000000000000000000000000000000000000000000000000000000000 

// 10.0 x (10 ^ 100) 
100000000000000000000000000000000000000000000000000000000000000000000000000000000000000000000000000000